set C := 1 2 3 4 5 6 7 8 9 10;

param q :=
    1 18.78
    2 23.33
    3 14.40
    4 38.70
    5 44.82
    6 10.06
    7 36.05
    8 29.62
    9 21.10
    10 13.81;
param ca :=
    1 193.43
    2 223.20
    3 238.98
    4 230.27
    5 213.59
    6 241.35
    7 248.07
    8 208.31
    9 213.51
    10 174.97;
param cc :=
    1 44.95
    2 35.86
    3 34.10
    4 44.87
    5 35.51
    6 38.52
    7 37.13
    8 34.94
    9 46.47
    10 35.52;
param cp :=
    1 11.71
    2 5.89
    3 5.68
    4 5.97
    5 8.43
    6 5.19
    7 6.39
    8 5.62
    9 5.51
    10 7.89;
param sMin := 0;
param sMax := 80;

namespace t0
{
    set A := 1;
    set AAnt := 2;
    set P := 3 4 5 6 7 8 9 10;
    set S := 1;

    param p :=
        1 1.0000000000;
    param d :=
        1 10.59;
    param h := 1;
    param s0 := 20;
}

namespace t1
{
    set AAnt := 1;
    set P := 3 4 5 6 7 8 9 10;
    set PAnt := 3 4 5 6 7 8 9 10;
    set S := 1 2 3;

    param p :=
        1 0.3790625093
        2 0.0292335000
        3 0.5917039906;
    param d :=
        1 22.05
        2 34.91
        3 16.06;
    param h := 1;
}

namespace t2
{
    set A2Ant := 1;
    set P := 3 4 5 6 7 8 9 10;
    set PAnt := 3 4 5 6 7 8 9 10;
    set S := 1 2 3;

    param p :=
        1 0.0653523713
        2 0.3536077033
        3 0.5810399254;
    param d :=
        1 28.05
        2 21.98
        3 19.38;
    param h := 1;
}

namespace t3
{
    set P := 3 4 5 6 7 8 9 10;
    set PAnt := 3 4 5 6 7 8 9 10;
    set S := 1 2 3;

    param p :=
        1 0.1280124752
        2 0.1486069398
        3 0.7233805850;
    param d :=
        1 36.09
        2 47.09
        3 43.88;
    param h := 1;
}

namespace t4
{
    set P := 3 4 5 6 7 8 9 10;
    set PAnt := 3 4 5 6 7 8 9 10;
    set S := 1 2 3;

    param p :=
        1 0.1912880768
        2 0.4491877379
        3 0.3595241852;
    param d :=
        1 29.12
        2 21.60
        3 14.38;
    param h := 1;
}

namespace t5
{
    set P := 3 4 5 6 7 8 9 10;
    set PAnt := 3 4 5 6 7 8 9 10;
    set S := 1 2 3;

    param p :=
        1 0.5424463133
        2 0.1450029651
        3 0.3125507216;
    param d :=
        1 13.93
        2 49.94
        3 21.89;
    param h := 1;
}

namespace t6
{
    set PAnt := 3 4 5 6 7 8 9 10;
    set S := 1 2 3;

    param p :=
        1 0.3523619044
        2 0.3841638423
        3 0.2634742533;
    param d :=
        1 34.64
        2 13.63
        3 30.36;
    param h := 1;
}
